p cnf 258 1253
-1 -181 0
-1 -182 0
-1 -183 0
-2 181 0
-2 -182 0
-2 -183 0
-3 -181 0
-3 182 0
-3 -183 0
-4 181 0
-4 182 0
-4 -183 0
-5 -181 0
-5 -182 0
-5 183 0
-1 31 0
-1 6 0
-2 32 0
-2 7 0
-3 33 0
-3 8 0
-4 34 0
-4 9 0
-5 35 0
-5 10 0
-6 -184 0
-6 -185 0
-6 -186 0
-7 184 0
-7 -185 0
-7 -186 0
-8 -184 0
-8 185 0
-8 -186 0
-9 184 0
-9 185 0
-9 -186 0
-10 -184 0
-10 -185 0
-10 186 0
-6 1 11 0
-6 1 36 0
-6 11 36 0
-7 2 12 0
-7 2 37 0
-7 12 37 0
-8 3 13 0
-8 3 38 0
-8 13 38 0
-9 4 14 0
-9 4 39 0
-9 14 39 0
-10 5 15 0
-10 5 40 0
-10 15 40 0
-6 -1 -11 -36 0
-7 -2 -12 -37 0
-8 -3 -13 -38 0
-9 -4 -14 -39 0
-10 -5 -15 -40 0
11 0
-12 0
-13 0
-14 0
-15 0
6 16 41 0
-6 -16 0
-6 -41 0
-16 -41 0
-16 -187 0
-16 -188 0
-16 -189 0
-17 187 0
-17 -188 0
-17 -189 0
-18 -187 0
-18 188 0
-18 -189 0
-19 187 0
-19 188 0
-19 -189 0
-20 -187 0
-20 -188 0
-20 189 0
-16 11 21 0
-16 11 46 0
-16 21 46 0
-17 12 22 0
-17 12 47 0
-17 22 47 0
-18 13 23 0
-18 13 48 0
-18 23 48 0
-19 14 24 0
-19 14 49 0
-19 24 49 0
-20 15 25 0
-20 15 50 0
-20 25 50 0
-16 -11 -21 -46 0
-17 -12 -22 -47 0
-18 -13 -23 -48 0
-19 -14 -24 -49 0
-20 -15 -25 -50 0
22 0
-21 0
-23 0
-24 0
-25 0
17 27 52 0
-17 -27 0
-17 -52 0
-27 -52 0
28 0
-26 0
-27 0
-29 0
-30 0
58 23 0
-58 -23 0
-31 -190 0
-31 -191 0
-31 -192 0
-32 190 0
-32 -191 0
-32 -192 0
-33 -190 0
-33 191 0
-33 -192 0
-34 190 0
-34 191 0
-34 -192 0
-35 -190 0
-35 -191 0
-35 192 0
-31 61 36 0
-31 61 1 0
-31 36 1 0
-32 62 37 0
-32 62 2 0
-32 37 2 0
-33 63 38 0
-33 63 3 0
-33 38 3 0
-34 64 39 0
-34 64 4 0
-34 39 4 0
-35 65 40 0
-35 65 5 0
-35 40 5 0
-31 -61 -36 -1 0
-32 -62 -37 -2 0
-33 -63 -38 -3 0
-34 -64 -39 -4 0
-35 -65 -40 -5 0
-36 -193 0
-36 -194 0
-36 -195 0
-37 193 0
-37 -194 0
-37 -195 0
-38 -193 0
-38 194 0
-38 -195 0
-39 193 0
-39 194 0
-39 -195 0
-40 -193 0
-40 -194 0
-40 195 0
-36 66 41 6 0
-36 66 41 31 0
-36 66 6 31 0
-36 41 6 31 0
-37 67 42 7 0
-37 67 42 32 0
-37 67 7 32 0
-37 42 7 32 0
-38 68 43 8 0
-38 68 43 33 0
-38 68 8 33 0
-38 43 8 33 0
-39 69 44 9 0
-39 69 44 34 0
-39 69 9 34 0
-39 44 9 34 0
-40 70 45 10 0
-40 70 45 35 0
-40 70 10 35 0
-40 45 10 35 0
-36 -66 -41 -6 0
-36 -66 -41 -31 0
-36 -66 -6 -31 0
-36 -41 -6 -31 0
-37 -67 -42 -7 0
-37 -67 -42 -32 0
-37 -67 -7 -32 0
-37 -42 -7 -32 0
-38 -68 -43 -8 0
-38 -68 -43 -33 0
-38 -68 -8 -33 0
-38 -43 -8 -33 0
-39 -69 -44 -9 0
-39 -69 -44 -34 0
-39 -69 -9 -34 0
-39 -44 -9 -34 0
-40 -70 -45 -10 0
-40 -70 -45 -35 0
-40 -70 -10 -35 0
-40 -45 -10 -35 0
-41 -196 0
-41 -197 0
-41 -198 0
-42 196 0
-42 -197 0
-42 -198 0
-43 -196 0
-43 197 0
-43 -198 0
-44 196 0
-44 197 0
-44 -198 0
-45 -196 0
-45 -197 0
-45 198 0
-41 71 46 11 0
-41 71 46 36 0
-41 71 11 36 0
-41 46 11 36 0
-42 72 47 12 0
-42 72 47 37 0
-42 72 12 37 0
-42 47 12 37 0
-43 73 48 13 0
-43 73 48 38 0
-43 73 13 38 0
-43 48 13 38 0
-44 74 49 14 0
-44 74 49 39 0
-44 74 14 39 0
-44 49 14 39 0
-45 75 50 15 0
-45 75 50 40 0
-45 75 15 40 0
-45 50 15 40 0
-41 -71 -46 -11 0
-41 -71 -46 -36 0
-41 -71 -11 -36 0
-41 -46 -11 -36 0
-42 -72 -47 -12 0
-42 -72 -47 -37 0
-42 -72 -12 -37 0
-42 -47 -12 -37 0
-43 -73 -48 -13 0
-43 -73 -48 -38 0
-43 -73 -13 -38 0
-43 -48 -13 -38 0
-44 -74 -49 -14 0
-44 -74 -49 -39 0
-44 -74 -14 -39 0
-44 -49 -14 -39 0
-45 -75 -50 -15 0
-45 -75 -50 -40 0
-45 -75 -15 -40 0
-45 -50 -15 -40 0
-46 -199 0
-46 -200 0
-46 -201 0
-47 199 0
-47 -200 0
-47 -201 0
-48 -199 0
-48 200 0
-48 -201 0
-49 199 0
-49 200 0
-49 -201 0
-50 -199 0
-50 -200 0
-50 201 0
-46 76 51 16 0
-46 76 51 41 0
-46 76 16 41 0
-46 51 16 41 0
-47 77 52 17 0
-47 77 52 42 0
-47 77 17 42 0
-47 52 17 42 0
-48 78 53 18 0
-48 78 53 43 0
-48 78 18 43 0
-48 53 18 43 0
-49 79 54 19 0
-49 79 54 44 0
-49 79 19 44 0
-49 54 19 44 0
-50 80 55 20 0
-50 80 55 45 0
-50 80 20 45 0
-50 55 20 45 0
-46 -76 -51 -16 0
-46 -76 -51 -41 0
-46 -76 -16 -41 0
-46 -51 -16 -41 0
-47 -77 -52 -17 0
-47 -77 -52 -42 0
-47 -77 -17 -42 0
-47 -52 -17 -42 0
-48 -78 -53 -18 0
-48 -78 -53 -43 0
-48 -78 -18 -43 0
-48 -53 -18 -43 0
-49 -79 -54 -19 0
-49 -79 -54 -44 0
-49 -79 -19 -44 0
-49 -54 -19 -44 0
-50 -80 -55 -20 0
-50 -80 -55 -45 0
-50 -80 -20 -45 0
-50 -55 -20 -45 0
54 0
-51 0
-52 0
-53 0
-55 0
84 59 24 49 0
-84 -59 0
-84 -24 0
-84 -49 0
-59 -24 0
-59 -49 0
-24 -49 0
-56 -202 0
-56 -203 0
-56 -204 0
-57 202 0
-57 -203 0
-57 -204 0
-58 -202 0
-58 203 0
-58 -204 0
-59 202 0
-59 203 0
-59 -204 0
-60 -202 0
-60 -203 0
-60 204 0
-56 86 51 0
-56 86 26 0
-56 51 26 0
-57 87 52 0
-57 87 27 0
-57 52 27 0
-58 88 53 0
-58 88 28 0
-58 53 28 0
-59 89 54 0
-59 89 29 0
-59 54 29 0
-60 90 55 0
-60 90 30 0
-60 55 30 0
-56 -86 -51 -26 0
-57 -87 -52 -27 0
-58 -88 -53 -28 0
-59 -89 -54 -29 0
-60 -90 -55 -30 0
-61 -205 0
-61 -206 0
-61 -207 0
-62 205 0
-62 -206 0
-62 -207 0
-63 -205 0
-63 206 0
-63 -207 0
-64 205 0
-64 206 0
-64 -207 0
-65 -205 0
-65 -206 0
-65 207 0
-61 91 66 0
-61 91 31 0
-61 66 31 0
-62 92 67 0
-62 92 32 0
-62 67 32 0
-63 93 68 0
-63 93 33 0
-63 68 33 0
-64 94 69 0
-64 94 34 0
-64 69 34 0
-65 95 70 0
-65 95 35 0
-65 70 35 0
-61 -91 -66 -31 0
-62 -92 -67 -32 0
-63 -93 -68 -33 0
-64 -94 -69 -34 0
-65 -95 -70 -35 0
-66 -208 0
-66 -209 0
-66 -210 0
-67 208 0
-67 -209 0
-67 -210 0
-68 -208 0
-68 209 0
-68 -210 0
-69 208 0
-69 209 0
-69 -210 0
-70 -208 0
-70 -209 0
-70 210 0
-66 96 71 36 0
-66 96 71 61 0
-66 96 36 61 0
-66 71 36 61 0
-67 97 72 37 0
-67 97 72 62 0
-67 97 37 62 0
-67 72 37 62 0
-68 98 73 38 0
-68 98 73 63 0
-68 98 38 63 0
-68 73 38 63 0
-69 99 74 39 0
-69 99 74 64 0
-69 99 39 64 0
-69 74 39 64 0
-70 100 75 40 0
-70 100 75 65 0
-70 100 40 65 0
-70 75 40 65 0
-66 -96 -71 -36 0
-66 -96 -71 -61 0
-66 -96 -36 -61 0
-66 -71 -36 -61 0
-67 -97 -72 -37 0
-67 -97 -72 -62 0
-67 -97 -37 -62 0
-67 -72 -37 -62 0
-68 -98 -73 -38 0
-68 -98 -73 -63 0
-68 -98 -38 -63 0
-68 -73 -38 -63 0
-69 -99 -74 -39 0
-69 -99 -74 -64 0
-69 -99 -39 -64 0
-69 -74 -39 -64 0
-70 -100 -75 -40 0
-70 -100 -75 -65 0
-70 -100 -40 -65 0
-70 -75 -40 -65 0
-71 -211 0
-71 -212 0
-71 -213 0
-72 211 0
-72 -212 0
-72 -213 0
-73 -211 0
-73 212 0
-73 -213 0
-74 211 0
-74 212 0
-74 -213 0
-75 -211 0
-75 -212 0
-75 213 0
-71 101 76 41 0
-71 101 76 66 0
-71 101 41 66 0
-71 76 41 66 0
-72 102 77 42 0
-72 102 77 67 0
-72 102 42 67 0
-72 77 42 67 0
-73 103 78 43 0
-73 103 78 68 0
-73 103 43 68 0
-73 78 43 68 0
-74 104 79 44 0
-74 104 79 69 0
-74 104 44 69 0
-74 79 44 69 0
-75 105 80 45 0
-75 105 80 70 0
-75 105 45 70 0
-75 80 45 70 0
-71 -101 -76 -41 0
-71 -101 -76 -66 0
-71 -101 -41 -66 0
-71 -76 -41 -66 0
-72 -102 -77 -42 0
-72 -102 -77 -67 0
-72 -102 -42 -67 0
-72 -77 -42 -67 0
-73 -103 -78 -43 0
-73 -103 -78 -68 0
-73 -103 -43 -68 0
-73 -78 -43 -68 0
-74 -104 -79 -44 0
-74 -104 -79 -69 0
-74 -104 -44 -69 0
-74 -79 -44 -69 0
-75 -105 -80 -45 0
-75 -105 -80 -70 0
-75 -105 -45 -70 0
-75 -80 -45 -70 0
-76 -214 0
-76 -215 0
-76 -216 0
-77 214 0
-77 -215 0
-77 -216 0
-78 -214 0
-78 215 0
-78 -216 0
-79 214 0
-79 215 0
-79 -216 0
-80 -214 0
-80 -215 0
-80 216 0
-76 106 81 46 0
-76 106 81 71 0
-76 106 46 71 0
-76 81 46 71 0
-77 107 82 47 0
-77 107 82 72 0
-77 107 47 72 0
-77 82 47 72 0
-78 108 83 48 0
-78 108 83 73 0
-78 108 48 73 0
-78 83 48 73 0
-79 109 84 49 0
-79 109 84 74 0
-79 109 49 74 0
-79 84 49 74 0
-80 110 85 50 0
-80 110 85 75 0
-80 110 50 75 0
-80 85 50 75 0
-76 -106 -81 -46 0
-76 -106 -81 -71 0
-76 -106 -46 -71 0
-76 -81 -46 -71 0
-77 -107 -82 -47 0
-77 -107 -82 -72 0
-77 -107 -47 -72 0
-77 -82 -47 -72 0
-78 -108 -83 -48 0
-78 -108 -83 -73 0
-78 -108 -48 -73 0
-78 -83 -48 -73 0
-79 -109 -84 -49 0
-79 -109 -84 -74 0
-79 -109 -49 -74 0
-79 -84 -49 -74 0
-80 -110 -85 -50 0
-80 -110 -85 -75 0
-80 -110 -50 -75 0
-80 -85 -50 -75 0
-81 -217 0
-81 -218 0
-81 -219 0
-82 217 0
-82 -218 0
-82 -219 0
-83 -217 0
-83 218 0
-83 -219 0
-84 217 0
-84 218 0
-84 -219 0
-85 -217 0
-85 -218 0
-85 219 0
-81 111 86 51 0
-81 111 86 76 0
-81 111 51 76 0
-81 86 51 76 0
-82 112 87 52 0
-82 112 87 77 0
-82 112 52 77 0
-82 87 52 77 0
-83 113 88 53 0
-83 113 88 78 0
-83 113 53 78 0
-83 88 53 78 0
-84 114 89 54 0
-84 114 89 79 0
-84 114 54 79 0
-84 89 54 79 0
-85 115 90 55 0
-85 115 90 80 0
-85 115 55 80 0
-85 90 55 80 0
-81 -111 -86 -51 0
-81 -111 -86 -76 0
-81 -111 -51 -76 0
-81 -86 -51 -76 0
-82 -112 -87 -52 0
-82 -112 -87 -77 0
-82 -112 -52 -77 0
-82 -87 -52 -77 0
-83 -113 -88 -53 0
-83 -113 -88 -78 0
-83 -113 -53 -78 0
-83 -88 -53 -78 0
-84 -114 -89 -54 0
-84 -114 -89 -79 0
-84 -114 -54 -79 0
-84 -89 -54 -79 0
-85 -115 -90 -55 0
-85 -115 -90 -80 0
-85 -115 -55 -80 0
-85 -90 -55 -80 0
-86 -220 0
-86 -221 0
-86 -222 0
-87 220 0
-87 -221 0
-87 -222 0
-88 -220 0
-88 221 0
-88 -222 0
-89 220 0
-89 221 0
-89 -222 0
-90 -220 0
-90 -221 0
-90 222 0
-86 116 81 0
-86 116 56 0
-86 81 56 0
-87 117 82 0
-87 117 57 0
-87 82 57 0
-88 118 83 0
-88 118 58 0
-88 83 58 0
-89 119 84 0
-89 119 59 0
-89 84 59 0
-90 120 85 0
-90 120 60 0
-90 85 60 0
-86 -116 -81 -56 0
-87 -117 -82 -57 0
-88 -118 -83 -58 0
-89 -119 -84 -59 0
-90 -120 -85 -60 0
-91 -223 0
-91 -224 0
-91 -225 0
-92 223 0
-92 -224 0
-92 -225 0
-93 -223 0
-93 224 0
-93 -225 0
-94 223 0
-94 224 0
-94 -225 0
-95 -223 0
-95 -224 0
-95 225 0
-91 121 96 0
-91 121 61 0
-91 96 61 0
-92 122 97 0
-92 122 62 0
-92 97 62 0
-93 123 98 0
-93 123 63 0
-93 98 63 0
-94 124 99 0
-94 124 64 0
-94 99 64 0
-95 125 100 0
-95 125 65 0
-95 100 65 0
-91 -121 -96 -61 0
-92 -122 -97 -62 0
-93 -123 -98 -63 0
-94 -124 -99 -64 0
-95 -125 -100 -65 0
-96 -226 0
-96 -227 0
-96 -228 0
-97 226 0
-97 -227 0
-97 -228 0
-98 -226 0
-98 227 0
-98 -228 0
-99 226 0
-99 227 0
-99 -228 0
-100 -226 0
-100 -227 0
-100 228 0
-96 126 101 66 0
-96 126 101 91 0
-96 126 66 91 0
-96 101 66 91 0
-97 127 102 67 0
-97 127 102 92 0
-97 127 67 92 0
-97 102 67 92 0
-98 128 103 68 0
-98 128 103 93 0
-98 128 68 93 0
-98 103 68 93 0
-99 129 104 69 0
-99 129 104 94 0
-99 129 69 94 0
-99 104 69 94 0
-100 130 105 70 0
-100 130 105 95 0
-100 130 70 95 0
-100 105 70 95 0
-96 -126 -101 -66 0
-96 -126 -101 -91 0
-96 -126 -66 -91 0
-96 -101 -66 -91 0
-97 -127 -102 -67 0
-97 -127 -102 -92 0
-97 -127 -67 -92 0
-97 -102 -67 -92 0
-98 -128 -103 -68 0
-98 -128 -103 -93 0
-98 -128 -68 -93 0
-98 -103 -68 -93 0
-99 -129 -104 -69 0
-99 -129 -104 -94 0
-99 -129 -69 -94 0
-99 -104 -69 -94 0
-100 -130 -105 -70 0
-100 -130 -105 -95 0
-100 -130 -70 -95 0
-100 -105 -70 -95 0
-101 -229 0
-101 -230 0
-101 -231 0
-102 229 0
-102 -230 0
-102 -231 0
-103 -229 0
-103 230 0
-103 -231 0
-104 229 0
-104 230 0
-104 -231 0
-105 -229 0
-105 -230 0
-105 231 0
-101 131 106 71 0
-101 131 106 96 0
-101 131 71 96 0
-101 106 71 96 0
-102 132 107 72 0
-102 132 107 97 0
-102 132 72 97 0
-102 107 72 97 0
-103 133 108 73 0
-103 133 108 98 0
-103 133 73 98 0
-103 108 73 98 0
-104 134 109 74 0
-104 134 109 99 0
-104 134 74 99 0
-104 109 74 99 0
-105 135 110 75 0
-105 135 110 100 0
-105 135 75 100 0
-105 110 75 100 0
-101 -131 -106 -71 0
-101 -131 -106 -96 0
-101 -131 -71 -96 0
-101 -106 -71 -96 0
-102 -132 -107 -72 0
-102 -132 -107 -97 0
-102 -132 -72 -97 0
-102 -107 -72 -97 0
-103 -133 -108 -73 0
-103 -133 -108 -98 0
-103 -133 -73 -98 0
-103 -108 -73 -98 0
-104 -134 -109 -74 0
-104 -134 -109 -99 0
-104 -134 -74 -99 0
-104 -109 -74 -99 0
-105 -135 -110 -75 0
-105 -135 -110 -100 0
-105 -135 -75 -100 0
-105 -110 -75 -100 0
108 0
-106 0
-107 0
-109 0
-110 0
138 113 78 103 0
-138 -113 0
-138 -78 0
-138 -103 0
-113 -78 0
-113 -103 0
-78 -103 0
-111 -232 0
-111 -233 0
-111 -234 0
-112 232 0
-112 -233 0
-112 -234 0
-113 -232 0
-113 233 0
-113 -234 0
-114 232 0
-114 233 0
-114 -234 0
-115 -232 0
-115 -233 0
-115 234 0
-111 141 116 81 0
-111 141 116 106 0
-111 141 81 106 0
-111 116 81 106 0
-112 142 117 82 0
-112 142 117 107 0
-112 142 82 107 0
-112 117 82 107 0
-113 143 118 83 0
-113 143 118 108 0
-113 143 83 108 0
-113 118 83 108 0
-114 144 119 84 0
-114 144 119 109 0
-114 144 84 109 0
-114 119 84 109 0
-115 145 120 85 0
-115 145 120 110 0
-115 145 85 110 0
-115 120 85 110 0
-111 -141 -116 -81 0
-111 -141 -116 -106 0
-111 -141 -81 -106 0
-111 -116 -81 -106 0
-112 -142 -117 -82 0
-112 -142 -117 -107 0
-112 -142 -82 -107 0
-112 -117 -82 -107 0
-113 -143 -118 -83 0
-113 -143 -118 -108 0
-113 -143 -83 -108 0
-113 -118 -83 -108 0
-114 -144 -119 -84 0
-114 -144 -119 -109 0
-114 -144 -84 -109 0
-114 -119 -84 -109 0
-115 -145 -120 -85 0
-115 -145 -120 -110 0
-115 -145 -85 -110 0
-115 -120 -85 -110 0
-116 -235 0
-116 -236 0
-116 -237 0
-117 235 0
-117 -236 0
-117 -237 0
-118 -235 0
-118 236 0
-118 -237 0
-119 235 0
-119 236 0
-119 -237 0
-120 -235 0
-120 -236 0
-120 237 0
-116 146 111 0
-116 146 86 0
-116 111 86 0
-117 147 112 0
-117 147 87 0
-117 112 87 0
-118 148 113 0
-118 148 88 0
-118 113 88 0
-119 149 114 0
-119 149 89 0
-119 114 89 0
-120 150 115 0
-120 150 90 0
-120 115 90 0
-116 -146 -111 -86 0
-117 -147 -112 -87 0
-118 -148 -113 -88 0
-119 -149 -114 -89 0
-120 -150 -115 -90 0
121 0
-122 0
-123 0
-124 0
-125 0
151 126 91 0
-151 -126 0
-151 -91 0
-126 -91 0
-126 -238 0
-126 -239 0
-126 -240 0
-127 238 0
-127 -239 0
-127 -240 0
-128 -238 0
-128 239 0
-128 -240 0
-129 238 0
-129 239 0
-129 -240 0
-130 -238 0
-130 -239 0
-130 240 0
-126 156 131 96 0
-126 156 131 121 0
-126 156 96 121 0
-126 131 96 121 0
-127 157 132 97 0
-127 157 132 122 0
-127 157 97 122 0
-127 132 97 122 0
-128 158 133 98 0
-128 158 133 123 0
-128 158 98 123 0
-128 133 98 123 0
-129 159 134 99 0
-129 159 134 124 0
-129 159 99 124 0
-129 134 99 124 0
-130 160 135 100 0
-130 160 135 125 0
-130 160 100 125 0
-130 135 100 125 0
-126 -156 -131 -96 0
-126 -156 -131 -121 0
-126 -156 -96 -121 0
-126 -131 -96 -121 0
-127 -157 -132 -97 0
-127 -157 -132 -122 0
-127 -157 -97 -122 0
-127 -132 -97 -122 0
-128 -158 -133 -98 0
-128 -158 -133 -123 0
-128 -158 -98 -123 0
-128 -133 -98 -123 0
-129 -159 -134 -99 0
-129 -159 -134 -124 0
-129 -159 -99 -124 0
-129 -134 -99 -124 0
-130 -160 -135 -100 0
-130 -160 -135 -125 0
-130 -160 -100 -125 0
-130 -135 -100 -125 0
-131 -241 0
-131 -242 0
-131 -243 0
-132 241 0
-132 -242 0
-132 -243 0
-133 -241 0
-133 242 0
-133 -243 0
-134 241 0
-134 242 0
-134 -243 0
-135 -241 0
-135 -242 0
-135 243 0
-131 161 136 101 0
-131 161 136 126 0
-131 161 101 126 0
-131 136 101 126 0
-132 162 137 102 0
-132 162 137 127 0
-132 162 102 127 0
-132 137 102 127 0
-133 163 138 103 0
-133 163 138 128 0
-133 163 103 128 0
-133 138 103 128 0
-134 164 139 104 0
-134 164 139 129 0
-134 164 104 129 0
-134 139 104 129 0
-135 165 140 105 0
-135 165 140 130 0
-135 165 105 130 0
-135 140 105 130 0
-131 -161 -136 -101 0
-131 -161 -136 -126 0
-131 -161 -101 -126 0
-131 -136 -101 -126 0
-132 -162 -137 -102 0
-132 -162 -137 -127 0
-132 -162 -102 -127 0
-132 -137 -102 -127 0
-133 -163 -138 -103 0
-133 -163 -138 -128 0
-133 -163 -103 -128 0
-133 -138 -103 -128 0
-134 -164 -139 -104 0
-134 -164 -139 -129 0
-134 -164 -104 -129 0
-134 -139 -104 -129 0
-135 -165 -140 -105 0
-135 -165 -140 -130 0
-135 -165 -105 -130 0
-135 -140 -105 -130 0
140 0
-136 0
-137 0
-138 0
-139 0
170 145 110 135 0
-170 -145 0
-170 -110 0
-170 -135 0
-145 -110 0
-145 -135 0
-110 -135 0
-141 -244 0
-141 -245 0
-141 -246 0
-142 244 0
-142 -245 0
-142 -246 0
-143 -244 0
-143 245 0
-143 -246 0
-144 244 0
-144 245 0
-144 -246 0
-145 -244 0
-145 -245 0
-145 246 0
-141 171 146 111 0
-141 171 146 136 0
-141 171 111 136 0
-141 146 111 136 0
-142 172 147 112 0
-142 172 147 137 0
-142 172 112 137 0
-142 147 112 137 0
-143 173 148 113 0
-143 173 148 138 0
-143 173 113 138 0
-143 148 113 138 0
-144 174 149 114 0
-144 174 149 139 0
-144 174 114 139 0
-144 149 114 139 0
-145 175 150 115 0
-145 175 150 140 0
-145 175 115 140 0
-145 150 115 140 0
-141 -171 -146 -111 0
-141 -171 -146 -136 0
-141 -171 -111 -136 0
-141 -146 -111 -136 0
-142 -172 -147 -112 0
-142 -172 -147 -137 0
-142 -172 -112 -137 0
-142 -147 -112 -137 0
-143 -173 -148 -113 0
-143 -173 -148 -138 0
-143 -173 -113 -138 0
-143 -148 -113 -138 0
-144 -174 -149 -114 0
-144 -174 -149 -139 0
-144 -174 -114 -139 0
-144 -149 -114 -139 0
-145 -175 -150 -115 0
-145 -175 -150 -140 0
-145 -175 -115 -140 0
-145 -150 -115 -140 0
-146 -247 0
-146 -248 0
-146 -249 0
-147 247 0
-147 -248 0
-147 -249 0
-148 -247 0
-148 248 0
-148 -249 0
-149 247 0
-149 248 0
-149 -249 0
-150 -247 0
-150 -248 0
-150 249 0
-146 176 141 0
-146 176 116 0
-146 141 116 0
-147 177 142 0
-147 177 117 0
-147 142 117 0
-148 178 143 0
-148 178 118 0
-148 143 118 0
-149 179 144 0
-149 179 119 0
-149 144 119 0
-150 180 145 0
-150 180 120 0
-150 145 120 0
-146 -176 -141 -116 0
-147 -177 -142 -117 0
-148 -178 -143 -118 0
-149 -179 -144 -119 0
-150 -180 -145 -120 0
152 0
-151 0
-153 0
-154 0
-155 0
122 157 0
-122 -157 0
-156 -250 0
-156 -251 0
-156 -252 0
-157 250 0
-157 -251 0
-157 -252 0
-158 -250 0
-158 251 0
-158 -252 0
-159 250 0
-159 251 0
-159 -252 0
-160 -250 0
-160 -251 0
-160 252 0
-156 126 161 0
-156 126 151 0
-156 161 151 0
-157 127 162 0
-157 127 152 0
-157 162 152 0
-158 128 163 0
-158 128 153 0
-158 163 153 0
-159 129 164 0
-159 129 154 0
-159 164 154 0
-160 130 165 0
-160 130 155 0
-160 165 155 0
-156 -126 -161 -151 0
-157 -127 -162 -152 0
-158 -128 -163 -153 0
-159 -129 -164 -154 0
-160 -130 -165 -155 0
-161 -253 0
-161 -254 0
-161 -255 0
-162 253 0
-162 -254 0
-162 -255 0
-163 -253 0
-163 254 0
-163 -255 0
-164 253 0
-164 254 0
-164 -255 0
-165 -253 0
-165 -254 0
-165 255 0
-161 131 166 0
-161 131 156 0
-161 166 156 0
-162 132 167 0
-162 132 157 0
-162 167 157 0
-163 133 168 0
-163 133 158 0
-163 168 158 0
-164 134 169 0
-164 134 159 0
-164 169 159 0
-165 135 170 0
-165 135 160 0
-165 170 160 0
-161 -131 -166 -156 0
-162 -132 -167 -157 0
-163 -133 -168 -158 0
-164 -134 -169 -159 0
-165 -135 -170 -160 0
-166 -256 0
-166 -257 0
-166 -258 0
-167 256 0
-167 -257 0
-167 -258 0
-168 -256 0
-168 257 0
-168 -258 0
-169 256 0
-169 257 0
-169 -258 0
-170 -256 0
-170 -257 0
-170 258 0
-166 136 171 0
-166 136 161 0
-166 171 161 0
-167 137 172 0
-167 137 162 0
-167 172 162 0
-168 138 173 0
-168 138 163 0
-168 173 163 0
-169 139 174 0
-169 139 164 0
-169 174 164 0
-170 140 175 0
-170 140 165 0
-170 175 165 0
-166 -136 -171 -161 0
-167 -137 -172 -162 0
-168 -138 -173 -163 0
-169 -139 -174 -164 0
-170 -140 -175 -165 0
174 0
-171 0
-172 0
-173 0
-175 0
144 179 169 0
-144 -179 0
-144 -169 0
-179 -169 0
180 0
-176 0
-177 0
-178 0
-179 0
150 175 0
-150 -175 0